c 24_4_checker_6cl.cnf
c
c field = 24
c formula set type = 4_checker_6cl
c
p cnf 6 16
38 
40 
42 
44 
-36 
-48 
39 
41 
43 
45 
-37 
-49 
40 
42 
44 
48 
-38 
-50 
41 
43 
45 
49 
-39 
-51 
42 
44 
48 
50 
-40 
-52 
43 
45 
49 
51 
-41 
-53 
44 
48 
50 
52 
-42 
-54 
45 
49 
51 
53 
-43 
-55 
48 
50 
52 
54 
-44 
-56 
49 
51 
53 
55 
-45 
-57 
76 
106 
136 
166 
-16 
-196 
77 
107 
137 
167 
-17 
-197 
78 
110 
142 
174 
-14 
-206 
79 
111 
143 
175 
-15 
-207 
74 
102 
130 
158 
-18 
-186 
75 
103 
131 
159 
-19 
-187 
